\ENCODING=ISO-8859-1
\Problem name: ilog.cplex

Maximize
 obj: 942 x(0)#0 + 586 x(1)#1 + 844 x(2)#2 + 896 x(3)#3 + 496 x(4)#4
      + 650 x(5)#5 + 477 x(6)#6 + 998 x(7)#7 + 634 x(8)#8 + 454 x(9)#9
      + 741 x(10)#10 + 884 x(11)#11 + 807 x(12)#12 + 745 x(13)#13
      + 517 x(14)#14 + 834 x(15)#15 + 935 x(16)#16 + 532 x(17)#17
      + 587 x(18)#18 + 576 x(19)#19 + 447 x(20)#20 + 750 x(21)#21
      + 683 x(22)#22 + 721 x(23)#23 + 883 x(24)#24 + 908 x(25)#25
      + 601 x(26)#26 + 720 x(27)#27 + 719 x(28)#28 + 750 x(29)#29
      + 760 x(30)#30 + 731 x(31)#31 + 524 x(32)#32 + 764 x(33)#33
      + 632 x(34)#34 + 595 x(35)#35 + 557 x(36)#36 + 787 x(37)#37
      + 822 x(38)#38 + 503 x(39)#39 + 958 x(40)#40 + 695 x(41)#41
      + 499 x(42)#42 + 604 x(43)#43 + 898 x(44)#44 + 974 x(45)#45
      + 744 x(46)#46 + 706 x(47)#47 + 610 x(48)#48 + 747 x(49)#49
      + 949 x(50)#50 + 762 x(51)#51 + 752 x(52)#52 + 871 x(53)#53
      + 872 x(54)#54 + 840 x(55)#55 + 837 x(56)#56 + 817 x(57)#57
      + 443 x(58)#58 + 551 x(59)#59 + 765 x(60)#60 + 724 x(61)#61
      + 575 x(62)#62 + 678 x(63)#63 + 884 x(64)#64 + 1017 x(65)#65
      + 620 x(66)#66 + 405 x(67)#67 + 715 x(68)#68 + 546 x(69)#69
      + 799 x(70)#70 + 657 x(71)#71 + 674 x(72)#72 + 757 x(73)#73
      + 294 x(74)#74 + 823 x(75)#75 + 568 x(76)#76 + 474 x(77)#77
      + 696 x(78)#78 + 748 x(79)#79 + 736 x(80)#80 + 675 x(81)#81
      + 776 x(82)#82 + 933 x(83)#83 + 680 x(84)#84 + 683 x(85)#85
      + 545 x(86)#86 + 656 x(87)#87 + 868 x(88)#88 + 515 x(89)#89
      + 869 x(90)#90 + 719 x(91)#91 + 814 x(92)#92 + 675 x(93)#93
      + 319 x(94)#94 + 1012 x(95)#95 + 651 x(96)#96 + 804 x(97)#97
      + 870 x(98)#98 + 682 x(99)#99
Subject To
 c1:  705 x(0)#0 + 792 x(1)#1 + 364 x(2)#2 + 839 x(3)#3 + 560 x(4)#4
      + 550 x(5)#5 + 116 x(6)#6 + 923 x(7)#7 + 494 x(8)#8 + 467 x(9)#9
      + 762 x(10)#10 + 827 x(11)#11 + 757 x(12)#12 + 526 x(13)#13
      + 344 x(14)#14 + 859 x(15)#15 + 599 x(16)#16 + 48 x(17)#17 + 210 x(18)#18
      + 732 x(19)#19 + 126 x(20)#20 + 984 x(21)#21 + 969 x(22)#22
      + 782 x(23)#23 + 743 x(24)#24 + 340 x(25)#25 + 379 x(26)#26
      + 404 x(27)#27 + 434 x(28)#28 + 46 x(29)#29 + 380 x(30)#30 + 131 x(31)#31
      + 59 x(32)#32 + 339 x(33)#33 + 810 x(34)#34 + 952 x(35)#35 + 710 x(36)#36
      + 698 x(37)#37 + 580 x(38)#38 + 84 x(39)#39 + 780 x(40)#40 + 497 x(41)#41
      + 272 x(42)#42 + 688 x(43)#43 + 223 x(44)#44 + 830 x(45)#45
      + 367 x(46)#46 + 1000 x(47)#47 + 447 x(48)#48 + 336 x(49)#49
      + 785 x(50)#50 + 745 x(51)#51 + 227 x(52)#52 + 820 x(53)#53
      + 823 x(54)#54 + 370 x(55)#55 + 711 x(56)#56 + 598 x(57)#57
      + 325 x(58)#58 + 61 x(59)#59 + 280 x(60)#60 + 310 x(61)#61 + 76 x(62)#62
      + 906 x(63)#63 + 416 x(64)#64 + 286 x(65)#65 + 888 x(66)#66 + 31 x(67)#67
      + 794 x(68)#68 + 61 x(69)#69 + 590 x(70)#70 + 297 x(71)#71 + 836 x(72)#72
      + 765 x(73)#73 + 236 x(74)#74 + 145 x(75)#75 + 791 x(76)#76
      + 612 x(77)#77 + 438 x(78)#78 + 575 x(79)#79 + 568 x(80)#80
      + 844 x(81)#81 + 531 x(82)#82 + 840 x(83)#83 + 708 x(84)#84
      + 939 x(85)#85 + 772 x(86)#86 + 375 x(87)#87 + 254 x(88)#88 + 83 x(89)#89
      + 200 x(90)#90 + 477 x(91)#91 + 120 x(92)#92 + 391 x(93)#93 + 64 x(94)#94
      + 784 x(95)#95 + 138 x(96)#96 + 50 x(97)#97 + 838 x(98)#98 + 380 x(99)#99
      <= 38264
 c2:  277 x(0)#0 + 223 x(1)#1 + 619 x(2)#2 + 804 x(3)#3 + 831 x(4)#4
      + 903 x(5)#5 + 805 x(6)#6 + 942 x(7)#7 + 860 x(8)#8 + 807 x(9)#9
      + 997 x(10)#10 + 706 x(11)#11 + 49 x(12)#12 + 461 x(13)#13 + 858 x(14)#14
      + 81 x(15)#15 + 104 x(16)#16 + 438 x(17)#17 + 495 x(18)#18 + 909 x(19)#19
      + 114 x(20)#20 + 354 x(21)#21 + 941 x(22)#22 + 381 x(23)#23
      + 432 x(24)#24 + 658 x(25)#25 + 841 x(26)#26 + 141 x(27)#27
      + 504 x(28)#28 + 62 x(29)#29 + 163 x(30)#30 + 127 x(31)#31 + 768 x(32)#32
      + 633 x(33)#33 + 91 x(34)#34 + 819 x(35)#35 + 155 x(36)#36 + 865 x(37)#37
      + 164 x(38)#38 + 255 x(39)#39 + 830 x(40)#40 + 519 x(41)#41
      + 133 x(42)#42 + 24 x(43)#43 + 898 x(44)#44 + 931 x(45)#45 + 364 x(46)#46
      + 660 x(47)#47 + 23 x(48)#48 + 885 x(49)#49 + 322 x(50)#50 + 60 x(51)#51
      + 261 x(52)#52 + 451 x(53)#53 + 212 x(54)#54 + 557 x(55)#55
      + 610 x(56)#56 + 414 x(57)#57 + 550 x(58)#58 + 329 x(59)#59
      + 482 x(60)#60 + 843 x(61)#61 + 632 x(62)#62 + 992 x(63)#63
      + 642 x(64)#64 + 906 x(65)#65 + 6 x(66)#66 + 768 x(67)#67 + 354 x(68)#68
      + 80 x(69)#69 + 224 x(70)#70 + 780 x(71)#71 + 710 x(72)#72 + 253 x(73)#73
      + 46 x(74)#74 + 136 x(75)#75 + 43 x(76)#76 + 13 x(77)#77 + 218 x(78)#78
      + 129 x(79)#79 + 378 x(80)#80 + 247 x(81)#81 + 458 x(82)#82
      + 356 x(83)#83 + 118 x(84)#84 + 271 x(85)#85 + 404 x(86)#86
      + 685 x(87)#87 + 509 x(88)#88 + 899 x(89)#89 + 217 x(90)#90
      + 676 x(91)#91 + 496 x(92)#92 + 160 x(93)#93 + 508 x(94)#94
      + 822 x(95)#95 + 346 x(96)#96 + 362 x(97)#97 + 11 x(98)#98 + 353 x(99)#99
      <= 34652
 c3:  659 x(0)#0 + 70 x(1)#1 + 162 x(2)#2 + 341 x(3)#3 + 810 x(4)#4
      + 680 x(5)#5 + 816 x(6)#6 + 859 x(7)#7 + 404 x(8)#8 + 251 x(9)#9
      + 547 x(10)#10 + 863 x(11)#11 + 151 x(12)#12 + 124 x(13)#13
      + 762 x(14)#14 + 605 x(15)#15 + 261 x(16)#16 + 189 x(17)#17
      + 478 x(18)#18 + 501 x(19)#19 + 129 x(20)#20 + 986 x(21)#21
      + 744 x(22)#22 + 254 x(23)#23 + 195 x(24)#24 + 565 x(25)#25
      + 553 x(26)#26 + 827 x(27)#27 + 403 x(28)#28 + 418 x(29)#29
      + 403 x(30)#30 + 952 x(31)#31 + 62 x(32)#32 + 906 x(33)#33 + 650 x(34)#34
      + 658 x(35)#35 + 516 x(36)#36 + 409 x(37)#37 + 170 x(38)#38
      + 218 x(39)#39 + 54 x(40)#40 + 974 x(41)#41 + 744 x(42)#42 + 368 x(43)#43
      + 936 x(44)#44 + 821 x(45)#45 + 200 x(46)#46 + 823 x(47)#47
      + 490 x(48)#48 + 669 x(49)#49 + 586 x(50)#50 + 869 x(51)#51
      + 774 x(52)#52 + 714 x(53)#53 + 683 x(54)#54 + 342 x(55)#55
      + 609 x(56)#56 + 699 x(57)#57 + 325 x(58)#58 + 269 x(59)#59
      + 170 x(60)#60 + 730 x(61)#61 + 821 x(62)#62 + 451 x(63)#63
      + 172 x(64)#64 + 141 x(65)#65 + 624 x(66)#66 + 739 x(67)#67 + 51 x(68)#68
      + 679 x(69)#69 + 717 x(70)#70 + 515 x(71)#71 + 288 x(72)#72
      + 829 x(73)#73 + x(74)#74 + 971 x(75)#75 + 92 x(76)#76 + 41 x(77)#77
      + 621 x(78)#78 + 234 x(79)#79 + 62 x(80)#80 + 193 x(81)#81 + 215 x(82)#82
      + 245 x(83)#83 + 821 x(84)#84 + 60 x(85)#85 + 700 x(86)#86 + 198 x(87)#87
      + 532 x(88)#88 + 914 x(89)#89 + 344 x(90)#90 + 310 x(91)#91
      + 312 x(92)#92 + 817 x(93)#93 + 91 x(94)#94 + 179 x(95)#95 + 355 x(96)#96
      + 414 x(97)#97 + 51 x(98)#98 + 488 x(99)#99 <= 35766
 c4:  943 x(0)#0 + 666 x(1)#1 + 945 x(2)#2 + 495 x(3)#3 + 89 x(4)#4
      + 713 x(5)#5 + 469 x(6)#6 + 359 x(7)#7 + 587 x(8)#8 + 656 x(9)#9
      + 521 x(10)#10 + 37 x(11)#11 + 152 x(12)#12 + 254 x(13)#13 + 47 x(14)#14
      + 212 x(15)#15 + 948 x(16)#16 + 631 x(17)#17 + 105 x(18)#18
      + 589 x(19)#19 + 139 x(20)#20 + 185 x(21)#21 + 163 x(22)#22
      + 932 x(23)#23 + 334 x(24)#24 + 367 x(25)#25 + 147 x(26)#26
      + 976 x(27)#27 + 133 x(28)#28 + 150 x(29)#29 + 628 x(30)#30
      + 633 x(31)#31 + 24 x(32)#32 + 715 x(33)#33 + 989 x(34)#34 + 878 x(35)#35
      + 900 x(36)#36 + 73 x(37)#37 + 334 x(38)#38 + 349 x(39)#39 + 925 x(40)#40
      + 171 x(41)#41 + 275 x(42)#42 + 714 x(43)#43 + 159 x(44)#44
      + 438 x(45)#45 + 23 x(46)#46 + 412 x(47)#47 + 141 x(48)#48 + 740 x(49)#49
      + 322 x(50)#50 + 186 x(51)#51 + 598 x(52)#52 + 968 x(53)#53
      + 598 x(54)#54 + 481 x(55)#55 + 507 x(56)#56 + 5 x(57)#57 + 37 x(58)#58
      + 658 x(59)#59 + 249 x(60)#60 + 20 x(61)#61 + 315 x(62)#62 + 261 x(63)#63
      + 735 x(64)#64 + 801 x(65)#65 + 330 x(66)#66 + 128 x(67)#67 + 78 x(68)#68
      + 445 x(69)#69 + 273 x(70)#70 + 582 x(71)#71 + 219 x(72)#72
      + 794 x(73)#73 + 140 x(74)#74 + 648 x(75)#75 + 406 x(76)#76
      + 808 x(77)#77 + 890 x(78)#78 + 380 x(79)#79 + 527 x(80)#80
      + 330 x(81)#81 + 425 x(82)#82 + 479 x(83)#83 + 998 x(84)#84
      + 272 x(85)#85 + 193 x(86)#86 + 427 x(87)#87 + 247 x(88)#88
      + 754 x(89)#89 + 227 x(90)#90 + 249 x(91)#91 + 135 x(92)#92
      + 553 x(93)#93 + 335 x(94)#94 + 822 x(95)#95 + 818 x(96)#96
      + 837 x(97)#97 + 864 x(98)#98 + 149 x(99)#99 <= 33726
 c5:  208 x(0)#0 + 310 x(1)#1 + 233 x(2)#2 + 288 x(3)#3 + 115 x(4)#4
      + 132 x(5)#5 + 20 x(6)#6 + 734 x(7)#7 + 666 x(8)#8 + 53 x(9)#9
      + 118 x(10)#10 + 475 x(11)#11 + 234 x(12)#12 + 514 x(13)#13
      + 132 x(14)#14 + 90 x(15)#15 + 881 x(16)#16 + 656 x(17)#17 + 292 x(18)#18
      + 300 x(19)#19 + 738 x(20)#20 + 807 x(21)#21 + 523 x(22)#22
      + 749 x(23)#23 + 376 x(24)#24 + 524 x(25)#25 + 945 x(26)#26
      + 122 x(27)#27 + 555 x(28)#28 + 902 x(29)#29 + 367 x(30)#30
      + 893 x(31)#31 + 795 x(32)#32 + 539 x(33)#33 + 652 x(34)#34
      + 828 x(35)#35 + 871 x(36)#36 + 729 x(37)#37 + 162 x(38)#38
      + 382 x(39)#39 + 172 x(40)#40 + 804 x(41)#41 + 444 x(42)#42
      + 419 x(43)#43 + 463 x(44)#44 + 571 x(45)#45 + 276 x(46)#46
      + 461 x(47)#47 + 249 x(48)#48 + 464 x(49)#49 + 966 x(50)#50
      + 986 x(51)#51 + 5 x(52)#52 + 523 x(53)#53 + 149 x(54)#54 + 134 x(55)#55
      + 82 x(56)#56 + 725 x(57)#57 + 593 x(58)#58 + 27 x(59)#59 + 601 x(60)#60
      + 245 x(61)#61 + 494 x(62)#62 + 216 x(63)#63 + 30 x(64)#64 + 949 x(65)#65
      + 771 x(66)#66 + 923 x(67)#67 + 278 x(68)#68 + 226 x(69)#69
      + 231 x(70)#70 + 134 x(71)#71 + 309 x(72)#72 + 782 x(73)#73
      + 100 x(74)#74 + 522 x(75)#75 + 788 x(76)#76 + 717 x(77)#77
      + 568 x(78)#78 + 934 x(79)#79 + 789 x(80)#80 + 593 x(81)#81
      + 551 x(82)#82 + 270 x(83)#83 + 375 x(84)#84 + 662 x(85)#85
      + 211 x(86)#86 + 892 x(87)#87 + 983 x(88)#88 + 37 x(89)#89 + 295 x(90)#90
      + 295 x(91)#91 + 148 x(92)#92 + 513 x(93)#93 + 14 x(94)#94 + 486 x(95)#95
      + 97 x(96)#96 + 979 x(97)#97 + 22 x(98)#98 + 347 x(99)#99 <= 34350
 c6:  201 x(0)#0 + 270 x(1)#1 + 771 x(2)#2 + 351 x(3)#3 + 452 x(4)#4
      + 258 x(5)#5 + 349 x(6)#6 + 457 x(7)#7 + 555 x(8)#8 + 33 x(9)#9
      + 601 x(10)#10 + 135 x(11)#11 + 341 x(12)#12 + 419 x(13)#13
      + 881 x(14)#14 + 992 x(15)#15 + 15 x(16)#16 + 153 x(17)#17 + 691 x(18)#18
      + 183 x(19)#19 + 566 x(20)#20 + 355 x(21)#21 + 562 x(22)#22
      + 512 x(23)#23 + 229 x(24)#24 + 755 x(25)#25 + 110 x(26)#26
      + 279 x(27)#27 + 100 x(28)#28 + 782 x(29)#29 + 636 x(30)#30
      + 773 x(31)#31 + 110 x(32)#32 + 606 x(33)#33 + 437 x(34)#34 + 66 x(35)#35
      + 433 x(36)#36 + 521 x(37)#37 + 416 x(38)#38 + 257 x(39)#39
      + 947 x(40)#40 + 70 x(41)#41 + 383 x(42)#42 + 590 x(43)#43 + 505 x(44)#44
      + 941 x(45)#45 + 586 x(46)#46 + 352 x(47)#47 + 399 x(48)#48 + 92 x(49)#49
      + 918 x(50)#50 + 446 x(51)#51 + 471 x(52)#52 + 360 x(53)#53
      + 634 x(54)#54 + 156 x(55)#55 + 178 x(56)#56 + 490 x(57)#57 + 79 x(58)#58
      + 914 x(59)#59 + 64 x(60)#60 + 365 x(61)#61 + 110 x(62)#62 + 697 x(63)#63
      + 247 x(64)#64 + 145 x(65)#65 + 535 x(66)#66 + 53 x(67)#67 + 700 x(68)#68
      + 874 x(69)#69 + 860 x(70)#70 + 312 x(71)#71 + 220 x(72)#72 + 13 x(73)#73
      + 266 x(74)#74 + 412 x(75)#75 + 802 x(76)#76 + 639 x(77)#77
      + 259 x(78)#78 + 910 x(79)#79 + 607 x(80)#80 + 741 x(81)#81
      + 939 x(82)#82 + 795 x(83)#83 + 794 x(84)#84 + 51 x(85)#85 + 785 x(86)#86
      + 764 x(87)#87 + 637 x(88)#88 + 334 x(89)#89 + 865 x(90)#90
      + 457 x(91)#91 + 235 x(92)#92 + 985 x(93)#93 + 436 x(94)#94
      + 975 x(95)#95 + 458 x(96)#96 + 504 x(97)#97 + 782 x(98)#98
      + 833 x(99)#99 <= 35688
 c7:  997 x(0)#0 + 477 x(1)#1 + 667 x(2)#2 + 71 x(3)#3 + 935 x(4)#4
      + 445 x(5)#5 + 249 x(6)#6 + 81 x(7)#7 + 206 x(8)#8 + 546 x(9)#9
      + 755 x(10)#10 + 586 x(11)#11 + 485 x(12)#12 + 535 x(13)#13 + 75 x(14)#14
      + 853 x(15)#15 + 320 x(16)#16 + 909 x(17)#17 + 317 x(18)#18
      + 1000 x(19)#19 + 621 x(20)#20 + 840 x(21)#21 + 524 x(22)#22
      + 875 x(23)#23 + 551 x(24)#24 + 449 x(25)#25 + 333 x(26)#26
      + 823 x(27)#27 + 897 x(28)#28 + 930 x(29)#29 + 709 x(30)#30
      + 134 x(31)#31 + 453 x(32)#32 + 739 x(33)#33 + 155 x(34)#34
      + 110 x(35)#35 + 258 x(36)#36 + 655 x(37)#37 + 981 x(38)#38
      + 125 x(39)#39 + 79 x(40)#40 + 245 x(41)#41 + 731 x(42)#42 + 356 x(43)#43
      + 723 x(44)#44 + 71 x(45)#45 + 134 x(46)#46 + 219 x(47)#47 + 824 x(48)#48
      + 269 x(49)#49 + 727 x(50)#50 + 584 x(51)#51 + 682 x(52)#52
      + 263 x(53)#53 + 759 x(54)#54 + 719 x(55)#55 + 403 x(56)#56
      + 349 x(57)#57 + 322 x(58)#58 + 48 x(59)#59 + 788 x(60)#60 + 839 x(61)#61
      + 26 x(62)#62 + 892 x(63)#63 + 883 x(64)#64 + 83 x(65)#65 + 69 x(66)#66
      + 133 x(67)#67 + 127 x(68)#68 + 794 x(69)#69 + 221 x(70)#70
      + 280 x(71)#71 + 76 x(72)#72 + 105 x(73)#73 + 803 x(74)#74 + 628 x(75)#75
      + 79 x(76)#76 + 815 x(77)#77 + 732 x(78)#78 + 471 x(79)#79 + 697 x(80)#80
      + 948 x(81)#81 + 847 x(82)#82 + 668 x(83)#83 + 676 x(84)#84
      + 724 x(85)#85 + 387 x(86)#86 + 911 x(87)#87 + 103 x(88)#88 + 62 x(89)#89
      + 187 x(90)#90 + 820 x(91)#91 + 193 x(92)#92 + 584 x(93)#93
      + 326 x(94)#94 + 555 x(95)#95 + 95 x(96)#96 + 254 x(97)#97 + 488 x(98)#98
      + 668 x(99)#99 <= 36911
 c8:  85 x(0)#0 + 254 x(1)#1 + 611 x(2)#2 + 490 x(3)#3 + 238 x(4)#4
      + 277 x(5)#5 + 619 x(6)#6 + 329 x(7)#7 + 155 x(8)#8 + 471 x(9)#9
      + 900 x(10)#10 + 391 x(11)#11 + 93 x(12)#12 + 849 x(13)#13 + 700 x(14)#14
      + 156 x(15)#15 + 532 x(16)#16 + 510 x(17)#17 + 408 x(18)#18
      + 417 x(19)#19 + 187 x(20)#20 + 283 x(21)#21 + 671 x(22)#22
      + 898 x(23)#23 + 714 x(24)#24 + 148 x(25)#25 + 80 x(26)#26 + 779 x(27)#27
      + 817 x(28)#28 + 779 x(29)#29 + 453 x(30)#30 + 835 x(31)#31
      + 980 x(32)#32 + 988 x(33)#33 + 437 x(34)#34 + 443 x(35)#35
      + 291 x(36)#36 + 465 x(37)#37 + 322 x(38)#38 + 53 x(39)#39 + 87 x(40)#40
      + 838 x(41)#41 + 551 x(42)#42 + 508 x(43)#43 + 84 x(44)#44 + 892 x(45)#45
      + 343 x(46)#46 + 152 x(47)#47 + 553 x(48)#48 + 614 x(49)#49
      + 629 x(50)#50 + 414 x(51)#51 + 112 x(52)#52 + 957 x(53)#53
      + 551 x(54)#54 + 401 x(55)#55 + 789 x(56)#56 + 452 x(57)#57
      + 874 x(58)#58 + 195 x(59)#59 + 697 x(60)#60 + 739 x(61)#61 + 36 x(62)#62
      + 114 x(63)#63 + 732 x(64)#64 + 955 x(65)#65 + 867 x(66)#66
      + 571 x(67)#67 + 421 x(68)#68 + 622 x(69)#69 + 89 x(70)#70 + 679 x(71)#71
      + 617 x(72)#72 + 189 x(73)#73 + 476 x(74)#74 + 559 x(75)#75
      + 196 x(76)#76 + 14 x(77)#77 + 95 x(78)#78 + 816 x(79)#79 + 42 x(80)#80
      + 891 x(81)#81 + 811 x(82)#82 + 287 x(83)#83 + 789 x(84)#84
      + 347 x(85)#85 + 403 x(86)#86 + 43 x(87)#87 + 932 x(88)#88 + 815 x(89)#89
      + 706 x(90)#90 + 181 x(91)#91 + 376 x(92)#92 + 229 x(93)#93 + 36 x(94)#94
      + 113 x(95)#95 + 870 x(96)#96 + 748 x(97)#97 + 951 x(98)#98
      + 977 x(99)#99 <= 36851
 c9:  803 x(0)#0 + 788 x(1)#1 + 56 x(2)#2 + 518 x(3)#3 + 258 x(4)#4
      + 426 x(5)#5 + 349 x(6)#6 + 790 x(7)#7 + 879 x(8)#8 + 6 x(9)#9
      + 310 x(10)#10 + 364 x(11)#11 + 682 x(12)#12 + 670 x(13)#13 + 58 x(14)#14
      + 930 x(15)#15 + 354 x(16)#16 + 734 x(17)#17 + 226 x(18)#18
      + 127 x(19)#19 + 726 x(20)#20 + 726 x(21)#21 + 920 x(22)#22
      + 320 x(23)#23 + 412 x(24)#24 + 129 x(25)#25 + 54 x(26)#26 + 264 x(27)#27
      + 153 x(28)#28 + 590 x(29)#29 + 847 x(30)#30 + 47 x(31)#31 + 229 x(32)#32
      + 785 x(33)#33 + 926 x(34)#34 + 404 x(35)#35 + 899 x(36)#36
      + 856 x(37)#37 + 720 x(38)#38 + 890 x(39)#39 + 804 x(40)#40
      + 373 x(41)#41 + 530 x(42)#42 + 211 x(43)#43 + 918 x(44)#44
      + 606 x(45)#45 + 121 x(46)#46 + 448 x(47)#47 + 327 x(48)#48
      + 717 x(49)#49 + 590 x(50)#50 + 852 x(51)#51 + 60 x(52)#52 + 840 x(53)#53
      + 46 x(54)#54 + 172 x(55)#55 + 55 x(56)#56 + 408 x(57)#57 + 418 x(58)#58
      + 590 x(59)#59 + 20 x(60)#60 + 410 x(61)#61 + 899 x(62)#62 + 372 x(63)#63
      + 483 x(64)#64 + 688 x(65)#65 + 596 x(66)#66 + 63 x(67)#67 + 963 x(68)#68
      + 485 x(69)#69 + 789 x(70)#70 + 291 x(71)#71 + 331 x(72)#72
      + 706 x(73)#73 + 99 x(74)#74 + 295 x(75)#75 + 807 x(76)#76 + 363 x(77)#77
      + 633 x(78)#78 + 385 x(79)#79 + 220 x(80)#80 + 376 x(81)#81
      + 556 x(82)#82 + 475 x(83)#83 + 660 x(84)#84 + 749 x(85)#85
      + 186 x(86)#86 + 272 x(87)#87 + 8 x(88)#88 + 745 x(89)#89 + 720 x(90)#90
      + 245 x(91)#91 + 145 x(92)#92 + 535 x(93)#93 + 29 x(94)#94 + 519 x(95)#95
      + 805 x(96)#96 + 654 x(97)#97 + 298 x(98)#98 + 584 x(99)#99 <= 35828
 c10: 714 x(0)#0 + 953 x(1)#1 + 870 x(2)#2 + 401 x(3)#3 + 508 x(4)#4
      + 613 x(5)#5 + 627 x(6)#6 + 447 x(7)#7 + 710 x(8)#8 + 470 x(9)#9
      + 338 x(10)#10 + 101 x(11)#11 + 233 x(12)#12 + 416 x(13)#13
      + 687 x(14)#14 + 613 x(15)#15 + 560 x(16)#16 + 910 x(17)#17
      + 628 x(18)#18 + 902 x(19)#19 + 200 x(20)#20 + 445 x(21)#21
      + 815 x(22)#22 + 971 x(23)#23 + 808 x(24)#24 + 694 x(25)#25
      + 571 x(26)#26 + 266 x(27)#27 + 588 x(28)#28 + 94 x(29)#29 + 687 x(30)#30
      + 648 x(31)#31 + 952 x(32)#32 + 836 x(33)#33 + 689 x(34)#34
      + 604 x(35)#35 + 71 x(36)#36 + 23 x(37)#37 + 984 x(38)#38 + 322 x(39)#39
      + 826 x(40)#40 + 854 x(41)#41 + 395 x(42)#42 + 324 x(43)#43
      + 255 x(44)#44 + 253 x(45)#45 + 573 x(46)#46 + 8 x(47)#47 + 863 x(48)#48
      + 482 x(49)#49 + 6 x(50)#50 + 316 x(51)#51 + 941 x(52)#52 + 523 x(53)#53
      + 56 x(54)#54 + 106 x(55)#55 + 359 x(56)#56 + 86 x(57)#57 + 510 x(58)#58
      + 667 x(59)#59 + 214 x(60)#60 + 501 x(61)#61 + 988 x(62)#62
      + 757 x(63)#63 + 854 x(64)#64 + 343 x(65)#65 + 550 x(66)#66
      + 492 x(67)#67 + 981 x(68)#68 + 112 x(69)#69 + 2 x(70)#70 + 938 x(71)#71
      + 659 x(72)#72 + 916 x(73)#73 + 77 x(74)#74 + 366 x(75)#75 + 861 x(76)#76
      + 390 x(77)#77 + 535 x(78)#78 + 229 x(79)#79 + 745 x(80)#80 + 26 x(81)#81
      + 598 x(82)#82 + 211 x(83)#83 + 537 x(84)#84 + 84 x(85)#85 + 58 x(86)#86
      + 344 x(87)#87 + 456 x(88)#88 + 239 x(89)#89 + 405 x(90)#90
      + 683 x(91)#91 + 989 x(92)#92 + 853 x(93)#93 + 921 x(94)#94
      + 544 x(95)#95 + 363 x(96)#96 + 386 x(97)#97 + 943 x(98)#98
      + 937 x(99)#99 <= 39344
Bounds
 0 <= x(0)#0 <= 1
 0 <= x(1)#1 <= 1
 0 <= x(2)#2 <= 1
 0 <= x(3)#3 <= 1
 0 <= x(4)#4 <= 1
 0 <= x(5)#5 <= 1
 0 <= x(6)#6 <= 1
 0 <= x(7)#7 <= 1
 0 <= x(8)#8 <= 1
 0 <= x(9)#9 <= 1
 0 <= x(10)#10 <= 1
 0 <= x(11)#11 <= 1
 0 <= x(12)#12 <= 1
 0 <= x(13)#13 <= 1
 0 <= x(14)#14 <= 1
 0 <= x(15)#15 <= 1
 0 <= x(16)#16 <= 1
 0 <= x(17)#17 <= 1
 0 <= x(18)#18 <= 1
 0 <= x(19)#19 <= 1
 0 <= x(20)#20 <= 1
 0 <= x(21)#21 <= 1
 0 <= x(22)#22 <= 1
 0 <= x(23)#23 <= 1
 0 <= x(24)#24 <= 1
 0 <= x(25)#25 <= 1
 0 <= x(26)#26 <= 1
 0 <= x(27)#27 <= 1
 0 <= x(28)#28 <= 1
 0 <= x(29)#29 <= 1
 0 <= x(30)#30 <= 1
 0 <= x(31)#31 <= 1
 0 <= x(32)#32 <= 1
 0 <= x(33)#33 <= 1
 0 <= x(34)#34 <= 1
 0 <= x(35)#35 <= 1
 0 <= x(36)#36 <= 1
 0 <= x(37)#37 <= 1
 0 <= x(38)#38 <= 1
 0 <= x(39)#39 <= 1
 0 <= x(40)#40 <= 1
 0 <= x(41)#41 <= 1
 0 <= x(42)#42 <= 1
 0 <= x(43)#43 <= 1
 0 <= x(44)#44 <= 1
 0 <= x(45)#45 <= 1
 0 <= x(46)#46 <= 1
 0 <= x(47)#47 <= 1
 0 <= x(48)#48 <= 1
 0 <= x(49)#49 <= 1
 0 <= x(50)#50 <= 1
 0 <= x(51)#51 <= 1
 0 <= x(52)#52 <= 1
 0 <= x(53)#53 <= 1
 0 <= x(54)#54 <= 1
 0 <= x(55)#55 <= 1
 0 <= x(56)#56 <= 1
 0 <= x(57)#57 <= 1
 0 <= x(58)#58 <= 1
 0 <= x(59)#59 <= 1
 0 <= x(60)#60 <= 1
 0 <= x(61)#61 <= 1
 0 <= x(62)#62 <= 1
 0 <= x(63)#63 <= 1
 0 <= x(64)#64 <= 1
 0 <= x(65)#65 <= 1
 0 <= x(66)#66 <= 1
 0 <= x(67)#67 <= 1
 0 <= x(68)#68 <= 1
 0 <= x(69)#69 <= 1
 0 <= x(70)#70 <= 1
 0 <= x(71)#71 <= 1
 0 <= x(72)#72 <= 1
 0 <= x(73)#73 <= 1
 0 <= x(74)#74 <= 1
 0 <= x(75)#75 <= 1
 0 <= x(76)#76 <= 1
 0 <= x(77)#77 <= 1
 0 <= x(78)#78 <= 1
 0 <= x(79)#79 <= 1
 0 <= x(80)#80 <= 1
 0 <= x(81)#81 <= 1
 0 <= x(82)#82 <= 1
 0 <= x(83)#83 <= 1
 0 <= x(84)#84 <= 1
 0 <= x(85)#85 <= 1
 0 <= x(86)#86 <= 1
 0 <= x(87)#87 <= 1
 0 <= x(88)#88 <= 1
 0 <= x(89)#89 <= 1
 0 <= x(90)#90 <= 1
 0 <= x(91)#91 <= 1
 0 <= x(92)#92 <= 1
 0 <= x(93)#93 <= 1
 0 <= x(94)#94 <= 1
 0 <= x(95)#95 <= 1
 0 <= x(96)#96 <= 1
 0 <= x(97)#97 <= 1
 0 <= x(98)#98 <= 1
 0 <= x(99)#99 <= 1
Generals
 x(0)#0  x(1)#1  x(2)#2  x(3)#3  x(4)#4  x(5)#5  x(6)#6  x(7)#7  x(8)#8 
 x(9)#9  x(10)#10  x(11)#11  x(12)#12  x(13)#13  x(14)#14  x(15)#15  x(16)#16 
 x(17)#17  x(18)#18  x(19)#19  x(20)#20  x(21)#21  x(22)#22  x(23)#23 
 x(24)#24  x(25)#25  x(26)#26  x(27)#27  x(28)#28  x(29)#29  x(30)#30 
 x(31)#31  x(32)#32  x(33)#33  x(34)#34  x(35)#35  x(36)#36  x(37)#37 
 x(38)#38  x(39)#39  x(40)#40  x(41)#41  x(42)#42  x(43)#43  x(44)#44 
 x(45)#45  x(46)#46  x(47)#47  x(48)#48  x(49)#49  x(50)#50  x(51)#51 
 x(52)#52  x(53)#53  x(54)#54  x(55)#55  x(56)#56  x(57)#57  x(58)#58 
 x(59)#59  x(60)#60  x(61)#61  x(62)#62  x(63)#63  x(64)#64  x(65)#65 
 x(66)#66  x(67)#67  x(68)#68  x(69)#69  x(70)#70  x(71)#71  x(72)#72 
 x(73)#73  x(74)#74  x(75)#75  x(76)#76  x(77)#77  x(78)#78  x(79)#79 
 x(80)#80  x(81)#81  x(82)#82  x(83)#83  x(84)#84  x(85)#85  x(86)#86 
 x(87)#87  x(88)#88  x(89)#89  x(90)#90  x(91)#91  x(92)#92  x(93)#93 
 x(94)#94  x(95)#95  x(96)#96  x(97)#97  x(98)#98  x(99)#99 
End
